NAME : J-n-10-k3.vrp
COMMENT : (Jude, Min no of trucks: 3, Optimal value: 160)
TYPE : CVRP
DIMENSION : 10
EDGE_WEIGHT_TYPE : EUC_2D
CAPACITY : 6000
NODE_COORD_SECTION
1 0 0
2 10 0
3 20 0
4 30 0
5 40 0
6 40 40
7 30 40
8 20 40
9 10 40
10 0 40
DEMAND_SECTION
1 0
2 500
3 500
4 500
5 500
6 500
7 500
8 500
9 500
10 500
DEPOT_SECTION
 1
 -1
EOF
